Version identifier: 22.1.1.0 | 2022-11-28 | 9160aff4d
CPXPARAM_ClockType                               1
CPXPARAM_Read_DataCheck                          1
CPXPARAM_Threads                                 1
CPXPARAM_TimeLimit                               7200
CPXPARAM_MIP_Tolerances_AbsMIPGap                0
CPXPARAM_MIP_Tolerances_MIPGap                   0
CPXPARAM_MIP_Tolerances_Integrality              0
Tried aggregator 2 times.
MIP Presolve eliminated 3520 rows and 0 columns.
MIP Presolve modified 3040 coefficients.
Aggregator did 1000 substitutions.
Reduced MIP has 4180 rows, 2500 columns, and 11930 nonzeros.
Reduced MIP has 2500 binaries, 0 generals, 0 SOSs, and 0 indicators.
Presolve time = 0.03 sec. (20.76 ticks)
Found incumbent of value -1832.000000 after 0.07 sec. (39.68 ticks)
Probing time = 0.01 sec. (2.46 ticks)
Tried aggregator 1 time.
Detecting symmetries...
MIP Presolve eliminated 200 rows and 0 columns.
Reduced MIP has 3980 rows, 2500 columns, and 10930 nonzeros.
Reduced MIP has 2500 binaries, 0 generals, 0 SOSs, and 0 indicators.
Presolve time = 0.02 sec. (13.66 ticks)
Probing time = 0.00 sec. (2.36 ticks)
Clique table members: 7280.
MIP emphasis: balance optimality and feasibility.
MIP search method: dynamic search.
Parallel mode: none, using 1 thread.
Root relaxation solution time = 0.22 sec. (175.44 ticks)

        Nodes                                         Cuts/
   Node  Left     Objective  IInf  Best Integer    Best Bound    ItCnt     Gap

*     0+    0                        -1832.0000      500.0000           127.29%
      0     0      200.0000   714    -1832.0000      200.0000     2047  110.92%
*     0+    0                          162.0000      200.0000            23.46%
*     0+    0                          196.0000      200.0000             2.04%
      0     2      200.0000   418      196.0000      200.0000     2314    2.04%
Elapsed time = 1.37 sec. (1024.95 ticks, tree = 0.01 MB, solutions = 3)
      2     4      200.0000   430      196.0000      200.0000     4437    2.04%
      5     7      200.0000   446      196.0000      200.0000     6563    2.04%
     19    21      200.0000   454      196.0000      200.0000     8810    2.04%
     40    42      200.0000   394      196.0000      200.0000    10990    2.04%
*    50+   50                          198.0000      200.0000             1.01%
*    59     1      integral     0      200.0000      200.0000    12160    0.00%

Root node processing (before b&c):
  Real time             =    1.35 sec. (1014.62 ticks)
Sequential b&c:
  Real time             =    1.45 sec. (1123.33 ticks)
                          ------------
Total (root+branch&cut) =    2.80 sec. (2137.95 ticks)
Solution is feasible.

---------------------
@@@ MIP_optimal
>>> Benchmark sw100-6.cnf k 2 OPT 200 TimeCost 3.541529893875122 TimeSolve 2.81905198097229 TimeRead 0.00710296630859375 TimeTrans 0.7153749465942383
